Set parameter Username
Academic license - for non-commercial use only - expires 2023-12-01
Set parameter TimeLimit to value 3600
Set parameter MIPGap to value 1e-06
Set parameter Threads to value 1
Set parameter NodefileStart to value 0.5
Set parameter NodefileDir to value "/home/jossian/Downloads"
Set parameter MIPGap to value 1e-06
Set parameter Threads to value 1
Set parameter NodefileDir to value "/home/jossian/Downloads"
Set parameter NodefileStart to value 0.5
Set parameter TimeLimit to value 3600
Gurobi Optimizer version 10.0.0 build v10.0.0rc2 (linux64)

CPU model: Intel(R) Core(TM) i5-1035G1 CPU @ 1.00GHz, instruction set [SSE2|AVX|AVX2|AVX512]
Thread count: 4 physical cores, 8 logical processors, using up to 1 threads

Optimize a model with 14851 rows, 5050 columns and 34750 nonzeros
Model fingerprint: 0x0a962270
Variable types: 0 continuous, 5050 integer (5050 binary)
Coefficient statistics:
  Matrix range     [1e+00, 2e+01]
  Objective range  [1e+00, 5e+01]
  Bounds range     [0e+00, 0e+00]
  RHS range        [1e+00, 4e+02]
Found heuristic solution: objective 12.0000000
Presolve removed 9866 rows and 2458 columns
Presolve time: 0.06s
Presolved: 4985 rows, 2592 columns, 10068 nonzeros
Variable types: 0 continuous, 2592 integer (2592 binary)
Found heuristic solution: objective 7842.0000000

Root relaxation: objective 2.136756e+04, 2634 iterations, 0.09 seconds (0.17 work units)

    Nodes    |    Current Node    |     Objective Bounds      |     Work
 Expl Unexpl |  Obj  Depth IntInf | Incumbent    BestBd   Gap | It/Node Time

     0     0 21367.5562    0 1854 7842.00000 21367.5562   172%     -    0s
H    0     0                    19973.000000 21367.5562  6.98%     -    0s
     0     0 21318.4550    0 1595 19973.0000 21318.4550  6.74%     -    0s
H    0     0                    20376.000000 21318.4550  4.63%     -    0s
     0     0 21196.2241    0 1949 20376.0000 21196.2241  4.03%     -    0s
H    0     0                    21106.000000 21196.2241  0.43%     -    0s
     0     0 21195.7402    0  766 21106.0000 21195.7402  0.43%     -    0s
     0     0 21195.3455    0 1605 21106.0000 21195.3455  0.42%     -    0s
     0     0 21195.3344    0 1605 21106.0000 21195.3344  0.42%     -    0s
     0     0 21183.6751    0 1682 21106.0000 21183.6751  0.37%     -    0s
H    0     0                    21130.000000 21183.6751  0.25%     -    0s
     0     0 21177.9894    0 1682 21130.0000 21177.9894  0.23%     -    0s
     0     0 21177.9386    0 1727 21130.0000 21177.9386  0.23%     -    0s
     0     0 21176.8754    0 1677 21130.0000 21176.8754  0.22%     -    1s
     0     0 21173.4098    0 1973 21130.0000 21173.4098  0.21%     -    1s
     0     0 21173.4007    0 1972 21130.0000 21173.4007  0.21%     -    1s
     0     0 21173.0393    0 1976 21130.0000 21173.0393  0.20%     -    1s
     0     0 21171.5209    0 1672 21130.0000 21171.5209  0.20%     -    1s
     0     0 21171.3722    0 1672 21130.0000 21171.3722  0.20%     -    1s
     0     0 21171.3192    0 1673 21130.0000 21171.3192  0.20%     -    1s
     0     0 21170.8084    0 1674 21130.0000 21170.8084  0.19%     -    1s
     0     0 21170.8084    0 1674 21130.0000 21170.8084  0.19%     -    1s
     0     0 21170.8084    0 1399 21130.0000 21170.8084  0.19%     -    1s
     0     0 21170.8084    0  883 21130.0000 21170.8084  0.19%     -    1s
     0     0 21170.8084    0 1397 21130.0000 21170.8084  0.19%     -    1s
     0     0 21170.8084    0 1310 21130.0000 21170.8084  0.19%     -    1s
     0     0 21170.8084    0   31 21130.0000 21170.8084  0.19%     -    1s
     0     0 21170.1416    0 1143 21130.0000 21170.1416  0.19%     -    1s
     0     0 21168.1427    0 1137 21130.0000 21168.1427  0.18%     -    1s
     0     0 21168.1211    0 1137 21130.0000 21168.1211  0.18%     -    1s
     0     0 21168.1078    0 1137 21130.0000 21168.1078  0.18%     -    1s
     0     0 21166.4723    0 1154 21130.0000 21166.4723  0.17%     -    2s
     0     0 21165.8032    0 1151 21130.0000 21165.8032  0.17%     -    2s
     0     0 21165.7597    0 1145 21130.0000 21165.7597  0.17%     -    2s
     0     0 21164.2160    0 1145 21130.0000 21164.2160  0.16%     -    2s
     0     0 21160.0819    0 1149 21130.0000 21160.0819  0.14%     -    2s
     0     0 21159.9054    0 1148 21130.0000 21159.9054  0.14%     -    2s
     0     0 21159.8795    0 1149 21130.0000 21159.8795  0.14%     -    2s
     0     0 21156.8223    0  920 21130.0000 21156.8223  0.13%     -    2s
     0     0 21156.8143    0  920 21130.0000 21156.8143  0.13%     -    2s
     0     0 21154.0792    0  917 21130.0000 21154.0792  0.11%     -    2s
     0     0 21152.8113    0  783 21130.0000 21152.8113  0.11%     -    2s
     0     0 21150.1779    0 1293 21130.0000 21150.1779  0.10%     -    2s
     0     0 21149.6442    0  840 21130.0000 21149.6442  0.09%     -    2s
     0     0 21147.7194    0  841 21130.0000 21147.7194  0.08%     -    2s
     0     0 21146.9972    0  783 21130.0000 21146.9972  0.08%     -    2s
     0     0 21146.4165    0  782 21130.0000 21146.4165  0.08%     -    2s
     0     0 21146.0105    0  757 21130.0000 21146.0105  0.08%     -    2s
     0     0 21145.5478    0  760 21130.0000 21145.5478  0.07%     -    2s
     0     0 21139.5879    0  691 21130.0000 21139.5879  0.05%     -    2s
     0     0 21136.2441    0  708 21130.0000 21136.2441  0.03%     -    2s
     0     0 21135.8002    0  693 21130.0000 21135.8002  0.03%     -    2s
     0     0 21134.6255    0  692 21130.0000 21134.6255  0.02%     -    2s

Cutting planes:
  MIR: 1
  StrongCG: 9
  Zero half: 7
  Mod-K: 1
  RLT: 33

Explored 1 nodes (8993 simplex iterations) in 2.51 seconds (4.13 work units)
Thread count was 1 (of 8 available processors)

Solution count 6: 21130 21106 20376 ... 12

Optimal solution found (tolerance 1.00e-06)
Best objective 2.113000000000e+04, best bound 2.113000000000e+04, gap 0.0000%

User-callback calls 948, time in user-callback 0.00 sec
